(set-info :source |printed by MathSAT|)
(declare-fun |.y{9}| () Int)
(declare-fun |.y{11}| () Int)
(declare-fun |.y{10}| () Int)
(declare-fun |.x{117}| () (Array Int Int))
(declare-fun |.y{13}| () (Array Int Int))
(declare-fun |.x{124}| () (Array Int Int))
(declare-fun |.y{14}| () (Array Int Int))
(declare-fun |.x{123}| () Int)
(declare-fun |.y{15}| () Int)
(declare-fun |.x{116}| () Int)
(declare-fun |.y{16}| () Int)
(declare-fun |.x{122}| () Int)
(declare-fun |.y{17}| () Int)
(declare-fun |.x{113}| () Int)
(declare-fun |.y{18}| () Int)
(declare-fun |.loc{3}| () Bool)
(declare-fun |.loc{5}| () Bool)
(declare-fun |.loc{4}| () Bool)
(declare-fun |.loc{6}| () Bool)
(declare-fun |.x{93}| () Bool)
(declare-fun |.x{92}| () Bool)
(declare-fun |.x{118}| () Int)
(declare-fun |.x{91}| () Bool)
(declare-fun |.x{125}| () Int)
(declare-fun |.x{40}| () (Array Int Int))
(declare-fun |.x{94}| () Bool)
(declare-fun |.x{44}| () (Array Int Int))
(declare-fun |.x{47}| () (Array Int Int))
(declare-fun |.x{90}| () Int)
(declare-fun |.x{86}| () Bool)
(declare-fun |.x{89}| () Int)
(declare-fun |.x{96}| () Bool)
(declare-fun |.x{95}| () Bool)
(define-fun .def_24 () Bool (! |.loc{3}| :next |.loc{5}|))
(define-fun .def_150 () Bool (not .def_24))
(define-fun .def_26 () Bool (! |.loc{4}| :next |.loc{6}|))
(define-fun .def_93 () Bool (not .def_26))
(define-fun .def_294 () Bool (! (and .def_93 .def_150) :init true))
(define-fun .def_50 () Int (* (- 1) |.x{125}|))
(define-fun .def_20 () Int (! |.x{122}| :next |.y{17}|))
(define-fun .def_282 () Int (+ .def_20 .def_50))
(define-fun .def_16 () Int (! |.x{123}| :next |.y{15}|))
(define-fun .def_283 () Int (+ .def_16 .def_282))
(define-fun .def_284 () Bool (= .def_283 0))
(define-fun .def_12 () (Array Int Int) (! |.x{117}| :next |.y{13}|))
(define-fun .def_197 () Int (select .def_12 |.x{118}|))
(define-fun .def_275 () Bool (= .def_197 10))
(define-fun .def_14 () (Array Int Int) (! |.x{124}| :next |.y{14}|))
(define-fun .def_270 () Int (select .def_14 |.x{125}|))
(define-fun .def_271 () Bool (= .def_270 20))
(define-fun .def_272 () Bool (not .def_271))
(define-fun .def_18 () Int (! |.x{116}| :next |.y{16}|))
(define-fun .def_183 () Bool (<= .def_18 0))
(define-fun .def_187 () Bool (not .def_183))
(define-fun .def_269 () Bool (and .def_26 .def_187))
(define-fun .def_273 () Bool (and .def_269 .def_272))
(define-fun .def_274 () Bool (and .def_150 .def_273))
(define-fun .def_276 () Bool (and .def_274 .def_275))
(define-fun .def_173 () Int (* (- 1) |.x{118}|))
(define-fun .def_174 () Int (+ .def_20 .def_173))
(define-fun .def_175 () Int (+ .def_18 .def_174))
(define-fun .def_176 () Bool (= .def_175 0))
(define-fun .def_277 () Bool (and .def_176 .def_276))
(define-fun .def_60 () Bool (<= .def_16 0))
(define-fun .def_58 () Bool (<= |.x{125}| 0))
(define-fun .def_59 () Bool (not .def_58))
(define-fun .def_61 () Bool (or .def_59 .def_60))
(define-fun .def_278 () Bool (and .def_61 .def_277))
(define-fun .def_279 () Bool (and |.loc{5}| .def_278))
(define-fun .def_64 () Bool (not .def_60))
(define-fun .def_280 () Bool (and .def_64 .def_279))
(define-fun .def_285 () Bool (and .def_280 .def_284))
(define-fun .def_286 () Bool (and .def_284 .def_285))
(define-fun .def_22 () Int (! |.x{113}| :next |.y{18}|))
(define-fun .def_255 () Bool (<= .def_22 .def_20))
(define-fun .def_256 () Bool (not .def_255))
(define-fun .def_287 () Bool (and .def_256 .def_286))
(define-fun .def_181 () Bool (<= |.x{118}| 0))
(define-fun .def_182 () Bool (not .def_181))
(define-fun .def_184 () Bool (or .def_182 .def_183))
(define-fun .def_288 () Bool (and .def_184 .def_287))
(define-fun .def_266 () Bool (= |.y{16}| .def_20))
(define-fun .def_260 () Bool (= |.y{17}| 0))
(define-fun .def_225 () Bool (not |.loc{5}|))
(define-fun .def_258 () Bool (and .def_24 .def_225))
(define-fun .def_259 () Bool (and .def_93 .def_258))
(define-fun .def_261 () Bool (and .def_259 .def_260))
(define-fun .def_8 () Int (! |.y{9}| :next |.y{11}|))
(define-fun .def_118 () Bool (<= .def_22 .def_8))
(define-fun .def_262 () Bool (and .def_118 .def_261))
(define-fun .def_241 () Bool (= .def_12 |.y{13}|))
(define-fun .def_263 () Bool (and .def_241 .def_262))
(define-fun .def_246 () Bool (= .def_14 |.y{14}|))
(define-fun .def_264 () Bool (and .def_246 .def_263))
(define-fun .def_107 () Bool (= .def_16 |.y{15}|))
(define-fun .def_265 () Bool (and .def_107 .def_264))
(define-fun .def_267 () Bool (and .def_265 .def_266))
(define-fun .def_114 () Bool (= .def_22 |.y{18}|))
(define-fun .def_268 () Bool (and .def_114 .def_267))
(define-fun .def_289 () Bool (or .def_268 .def_288))
(define-fun .def_250 () Bool (not |.x{96}|))
(define-fun .def_233 () Bool (and |.x{94}| |.x{95}|))
(define-fun .def_249 () Bool (not .def_233))
(define-fun .def_251 () Bool (or .def_249 .def_250))
(define-fun .def_234 () Bool (and |.x{92}| |.x{91}|))
(define-fun .def_243 () Bool (not .def_234))
(define-fun .def_244 () Bool (or |.x{93}| .def_243))
(define-fun .def_237 () Int (select .def_14 |.x{89}|))
(define-fun .def_238 () Bool (= |.x{90}| .def_237))
(define-fun .def_86 () Bool (not |.x{91}|))
(define-fun .def_239 () Bool (or .def_86 .def_238))
(define-fun .def_235 () Bool (or .def_233 .def_234))
(define-fun .def_230 () Bool (not |.x{95}|))
(define-fun .def_231 () Bool (or |.x{94}| .def_230))
(define-fun .def_227 () Bool (or .def_64 .def_86))
(define-fun .def_220 () Bool (<= |.x{89}| 0))
(define-fun .def_221 () Bool (not .def_220))
(define-fun .def_222 () Bool (or .def_60 .def_221))
(define-fun .def_223 () Bool (or .def_86 .def_222))
(define-fun .def_31 () Bool (not |.x{92}|))
(define-fun .def_218 () Bool (or .def_31 |.x{91}|))
(define-fun .def_214 () Bool (= |.x{90}| 20))
(define-fun .def_215 () Bool (= |.x{93}| .def_214))
(define-fun .def_216 () Bool (or .def_86 .def_215))
(define-fun .def_208 () Int (* (- 1) |.x{89}|))
(define-fun .def_209 () Int (+ .def_20 .def_208))
(define-fun .def_210 () Int (+ .def_16 .def_209))
(define-fun .def_211 () Bool (= .def_210 0))
(define-fun .def_212 () Bool (or .def_86 .def_211))
(define-fun .def_201 () Bool (= |.x{125}| 10))
(define-fun .def_202 () Bool (= |.x{96}| .def_201))
(define-fun .def_75 () Bool (not |.x{94}|))
(define-fun .def_203 () Bool (or .def_75 .def_202))
(define-fun .def_198 () Bool (= |.x{125}| .def_197))
(define-fun .def_199 () Bool (or .def_75 .def_198))
(define-fun .def_190 () Bool (and |.x{91}| |.x{94}|))
(define-fun .def_193 () Bool (not .def_190))
(define-fun .def_195 () Bool (or .def_193 |.x{96}|))
(define-fun .def_191 () Bool (or .def_86 .def_190))
(define-fun .def_188 () Bool (or .def_75 .def_187))
(define-fun .def_185 () Bool (or .def_75 .def_184))
(define-fun .def_177 () Bool (or .def_75 .def_176))
(define-fun .def_170 () Bool (and |.x{94}| |.x{86}|))
(define-fun .def_171 () Bool (or .def_75 .def_170))
(define-fun .def_167 () Int (* (- 1) |.y{17}|))
(define-fun .def_168 () Int (+ .def_20 .def_167))
(define-fun .def_169 () Bool (= .def_168 (- 1)))
(define-fun .def_172 () Bool (and .def_169 .def_171))
(define-fun .def_178 () Bool (and .def_172 .def_177))
(define-fun .def_179 () Bool (and .def_26 .def_178))
(define-fun .def_180 () Bool (and .def_150 .def_179))
(define-fun .def_186 () Bool (and .def_180 .def_185))
(define-fun .def_189 () Bool (and .def_186 .def_188))
(define-fun .def_192 () Bool (and .def_189 .def_191))
(define-fun .def_196 () Bool (and .def_192 .def_195))
(define-fun .def_200 () Bool (and .def_196 .def_199))
(define-fun .def_204 () Bool (and .def_200 .def_203))
(define-fun .def_213 () Bool (and .def_204 .def_212))
(define-fun .def_217 () Bool (and .def_213 .def_216))
(define-fun .def_219 () Bool (and .def_217 .def_218))
(define-fun .def_224 () Bool (and .def_219 .def_223))
(define-fun .def_226 () Bool (and .def_224 .def_225))
(define-fun .def_228 () Bool (and .def_226 .def_227))
(define-fun .def_232 () Bool (and .def_228 .def_231))
(define-fun .def_236 () Bool (and .def_232 .def_235))
(define-fun .def_240 () Bool (and .def_236 .def_239))
(define-fun .def_242 () Bool (and .def_240 .def_241))
(define-fun .def_245 () Bool (and .def_242 .def_244))
(define-fun .def_247 () Bool (and .def_245 .def_246))
(define-fun .def_248 () Bool (and .def_107 .def_247))
(define-fun .def_252 () Bool (and .def_248 .def_251))
(define-fun .def_253 () Bool (and .def_114 .def_252))
(define-fun .def_116 () Bool (= .def_18 |.y{16}|))
(define-fun .def_254 () Bool (and .def_116 .def_253))
(define-fun .def_257 () Bool (and .def_254 .def_256))
(define-fun .def_290 () Bool (or .def_257 .def_289))
(define-fun .def_291 () Bool (and |.loc{6}| .def_290))
(define-fun .def_164 () Bool (= .def_8 |.y{16}|))
(define-fun .def_160 () Bool (<= |.y{15}| 0))
(define-fun .def_161 () Bool (not .def_160))
(define-fun .def_157 () Bool (<= |.y{18}| 0))
(define-fun .def_158 () Bool (not .def_157))
(define-fun .def_154 () Bool (<= |.y{17}| 0))
(define-fun .def_155 () Bool (not .def_154))
(define-fun .def_152 () Bool (= |.y{11}| 0))
(define-fun .def_45 () Bool (not |.loc{6}|))
(define-fun .def_151 () Bool (and .def_45 .def_150))
(define-fun .def_153 () Bool (and .def_151 .def_152))
(define-fun .def_156 () Bool (and .def_153 .def_155))
(define-fun .def_159 () Bool (and .def_156 .def_158))
(define-fun .def_162 () Bool (and .def_159 .def_161))
(define-fun .def_163 () Bool (and |.loc{5}| .def_162))
(define-fun .def_165 () Bool (and .def_163 .def_164))
(define-fun .def_166 () Bool (and .def_93 .def_165))
(define-fun .def_292 () Bool (or .def_166 .def_291))
(define-fun .def_141 () Bool (<= .def_20 0))
(define-fun .def_147 () Bool (not .def_141))
(define-fun .def_38 () Bool (not |.x{93}|))
(define-fun .def_148 () Bool (or .def_38 .def_147))
(define-fun .def_142 () Bool (<= |.x{90}| 0))
(define-fun .def_143 () Bool (not .def_142))
(define-fun .def_144 () Bool (or .def_141 .def_143))
(define-fun .def_145 () Bool (or .def_38 .def_144))
(define-fun .def_135 () Int (* (- 1) |.x{90}|))
(define-fun .def_136 () Int (+ .def_20 .def_135))
(define-fun .def_137 () Int (+ .def_8 .def_136))
(define-fun .def_138 () Bool (= .def_137 0))
(define-fun .def_139 () Bool (or .def_38 .def_138))
(define-fun .def_128 () Bool (= .def_18 |.x{89}|))
(define-fun .def_129 () Bool (or .def_38 .def_128))
(define-fun .def_121 () Bool (and |.x{93}| |.x{86}|))
(define-fun .def_125 () Bool (or .def_38 .def_121))
(define-fun .def_122 () Bool (not .def_121))
(define-fun .def_119 () Bool (not .def_118))
(define-fun .def_123 () Bool (or .def_119 .def_122))
(define-fun .def_110 () (Array Int Int) (store .def_12 |.x{90}| |.x{118}|))
(define-fun .def_111 () Bool (= |.y{13}| .def_110))
(define-fun .def_112 () Bool (or .def_38 .def_111))
(define-fun .def_105 () Bool (= .def_20 |.y{17}|))
(define-fun .def_102 () Bool (= |.y{14}| |.x{47}|))
(define-fun .def_78 () Bool (and |.x{93}| |.x{94}|))
(define-fun .def_85 () Bool (not .def_78))
(define-fun .def_103 () Bool (or .def_85 .def_102))
(define-fun .def_98 () Int (* (- 1) |.y{11}|))
(define-fun .def_99 () Int (+ .def_8 .def_98))
(define-fun .def_100 () Bool (= .def_99 (- 1)))
(define-fun .def_95 () Bool (= |.y{14}| |.x{44}|))
(define-fun .def_96 () Bool (or .def_31 .def_95))
(define-fun .def_90 () Bool (= .def_14 |.x{47}|))
(define-fun .def_91 () Bool (or .def_85 .def_90))
(define-fun .def_87 () Bool (or .def_85 .def_86))
(define-fun .def_82 () Bool (= |.x{40}| |.x{44}|))
(define-fun .def_83 () Bool (or .def_31 .def_82))
(define-fun .def_79 () Bool (or |.x{92}| .def_78))
(define-fun .def_76 () Bool (or |.x{93}| .def_75))
(define-fun .def_68 () (Array Int Int) (store .def_14 |.x{125}| 20))
(define-fun .def_70 () Bool (= .def_68 |.x{40}|))
(define-fun .def_71 () Bool (or .def_31 .def_70))
(define-fun .def_65 () Bool (or .def_31 .def_64))
(define-fun .def_62 () Bool (or .def_31 .def_61))
(define-fun .def_53 () Int (+ .def_16 .def_50))
(define-fun .def_54 () Int (+ .def_8 .def_53))
(define-fun .def_55 () Bool (= .def_54 0))
(define-fun .def_56 () Bool (or .def_31 .def_55))
(define-fun .def_30 () Bool (and |.x{93}| |.x{92}|))
(define-fun .def_41 () Bool (not .def_30))
(define-fun .def_42 () Bool (or |.x{91}| .def_41))
(define-fun .def_35 () Bool (= |.x{118}| 10))
(define-fun .def_37 () Bool (= .def_35 |.x{91}|))
(define-fun .def_39 () Bool (or .def_37 .def_38))
(define-fun .def_32 () Bool (or .def_30 .def_31))
(define-fun .def_40 () Bool (and .def_32 .def_39))
(define-fun .def_43 () Bool (and .def_40 .def_42))
(define-fun .def_44 () Bool (and .def_24 .def_43))
(define-fun .def_46 () Bool (and .def_44 .def_45))
(define-fun .def_57 () Bool (and .def_46 .def_56))
(define-fun .def_63 () Bool (and .def_57 .def_62))
(define-fun .def_66 () Bool (and .def_63 .def_65))
(define-fun .def_72 () Bool (and .def_66 .def_71))
(define-fun .def_73 () Bool (and |.loc{5}| .def_72))
(define-fun .def_77 () Bool (and .def_73 .def_76))
(define-fun .def_80 () Bool (and .def_77 .def_79))
(define-fun .def_84 () Bool (and .def_80 .def_83))
(define-fun .def_88 () Bool (and .def_84 .def_87))
(define-fun .def_92 () Bool (and .def_88 .def_91))
(define-fun .def_94 () Bool (and .def_92 .def_93))
(define-fun .def_97 () Bool (and .def_94 .def_96))
(define-fun .def_101 () Bool (and .def_97 .def_100))
(define-fun .def_104 () Bool (and .def_101 .def_103))
(define-fun .def_106 () Bool (and .def_104 .def_105))
(define-fun .def_108 () Bool (and .def_106 .def_107))
(define-fun .def_113 () Bool (and .def_108 .def_112))
(define-fun .def_115 () Bool (and .def_113 .def_114))
(define-fun .def_117 () Bool (and .def_115 .def_116))
(define-fun .def_124 () Bool (and .def_117 .def_123))
(define-fun .def_126 () Bool (and .def_124 .def_125))
(define-fun .def_130 () Bool (and .def_126 .def_129))
(define-fun .def_140 () Bool (and .def_130 .def_139))
(define-fun .def_146 () Bool (and .def_140 .def_145))
(define-fun .def_149 () Bool (and .def_146 .def_148))
(define-fun .def_293 () Bool (! (or .def_149 .def_292) :trans true))
(define-fun .def_10 () Int (! |.y{10}| :next |.y{12}|))
(define-fun .def_295 () Bool (and .def_24 .def_26))
(define-fun .def_296 () Bool (! (not .def_295) :invar-property 0))
(assert true)
